Instance: E200-17c.dat
Class:  4
  199 --- number of customers (no depot)
   41 --- number of vehicles
  499 --- number of items
Capacity - height - width of vehicles
   200     40     20
Node - x - y - demand
    0    35.0    35.0     0.0
    1    22.0    22.0    18.0
    2    36.0    26.0    26.0
    3    21.0    45.0    11.0
    4    45.0    35.0    30.0
    5    55.0    20.0    21.0
    6    33.0    34.0    19.0
    7    50.0    50.0    15.0
    8    55.0    45.0    16.0
    9    26.0    59.0    29.0
   10    40.0    66.0    26.0
   11    55.0    65.0    37.0
   12    35.0    51.0    16.0
   13    62.0    35.0    12.0
   14    62.0    57.0    31.0
   15    62.0    24.0     8.0
   16    21.0    36.0    19.0
   17    33.0    44.0    20.0
   18     9.0    56.0    13.0
   19    62.0    48.0    15.0
   20    66.0    14.0    22.0
   21    44.0    13.0    28.0
   22    26.0    13.0    12.0
   23    11.0    28.0     6.0
   24     7.0    43.0    27.0
   25    17.0    64.0    14.0
   26    41.0    46.0    18.0
   27    55.0    34.0    17.0
   28    35.0    16.0    29.0
   29    52.0    26.0    13.0
   30    43.0    26.0    22.0
   31    31.0    76.0    25.0
   32    22.0    53.0    28.0
   33    26.0    29.0    27.0
   34    50.0    40.0    19.0
   35    55.0    50.0    10.0
   36    54.0    10.0    12.0
   37    60.0    15.0    14.0
   38    47.0    66.0    24.0
   39    30.0    60.0    16.0
   40    30.0    50.0    33.0
   41    12.0    17.0    15.0
   42    15.0    14.0    11.0
   43    16.0    19.0    18.0
   44    21.0    48.0    17.0
   45    50.0    30.0    21.0
   46    51.0    42.0    27.0
   47    50.0    15.0    19.0
   48    48.0    21.0    20.0
   49    12.0    38.0     5.0
   50    37.0    52.0     7.0
   51    49.0    49.0    30.0
   52    52.0    64.0    16.0
   53    20.0    26.0     9.0
   54    40.0    30.0    21.0
   55    21.0    47.0    15.0
   56    17.0    63.0    19.0
   57    31.0    62.0    23.0
   58    52.0    33.0    11.0
   59    51.0    21.0     5.0
   60    42.0    41.0    19.0
   61    31.0    32.0    29.0
   62     5.0    25.0    23.0
   63    12.0    42.0    21.0
   64    36.0    16.0    10.0
   65    52.0    41.0    15.0
   66    27.0    23.0     3.0
   67    17.0    33.0    41.0
   68    13.0    13.0     9.0
   69    57.0    58.0    28.0
   70    62.0    42.0     8.0
   71    42.0    57.0     8.0
   72    16.0    57.0    16.0
   73     8.0    52.0    10.0
   74     7.0    38.0    28.0
   75    27.0    68.0     7.0
   76    30.0    48.0    15.0
   77    43.0    67.0    14.0
   78    58.0    48.0     6.0
   79    58.0    27.0    19.0
   80    37.0    69.0    11.0
   81    38.0    46.0    12.0
   82    46.0    10.0    23.0
   83    61.0    33.0    26.0
   84    62.0    63.0    17.0
   85    63.0    69.0     6.0
   86    32.0    22.0     9.0
   87    45.0    35.0    15.0
   88    59.0    15.0    14.0
   89     5.0     6.0     7.0
   90    10.0    17.0    27.0
   91    21.0    10.0    13.0
   92     5.0    64.0    11.0
   93    30.0    15.0    16.0
   94    39.0    10.0    10.0
   95    32.0    39.0     5.0
   96    25.0    32.0    25.0
   97    25.0    55.0    17.0
   98    48.0    28.0    18.0
   99    56.0    37.0    10.0
  100    41.0    49.0    10.0
  101    35.0    17.0     7.0
  102    55.0    45.0    13.0
  103    55.0    20.0    19.0
  104    15.0    30.0    26.0
  105    25.0    30.0     3.0
  106    20.0    50.0     5.0
  107    10.0    43.0     9.0
  108    55.0    60.0    16.0
  109    30.0    60.0    16.0
  110    20.0    65.0    12.0
  111    50.0    35.0    19.0
  112    30.0    25.0    23.0
  113    15.0    10.0    20.0
  114    30.0     5.0     8.0
  115    10.0    20.0    19.0
  116     5.0    30.0     2.0
  117    20.0    40.0    12.0
  118    15.0    60.0    17.0
  119    45.0    65.0     9.0
  120    45.0    20.0    11.0
  121    45.0    10.0    18.0
  122    55.0     5.0    29.0
  123    65.0    35.0     3.0
  124    65.0    20.0     6.0
  125    45.0    30.0    17.0
  126    35.0    40.0    16.0
  127    41.0    37.0    16.0
  128    64.0    42.0     9.0
  129    40.0    60.0    21.0
  130    31.0    52.0    27.0
  131    35.0    69.0    23.0
  132    53.0    52.0    11.0
  133    65.0    55.0    14.0
  134    63.0    65.0     8.0
  135     2.0    60.0     5.0
  136    20.0    20.0     8.0
  137     5.0     5.0    16.0
  138    60.0    12.0    31.0
  139    40.0    25.0     9.0
  140    42.0     7.0     5.0
  141    24.0    12.0     5.0
  142    23.0     3.0     7.0
  143    11.0    14.0    18.0
  144     6.0    38.0    16.0
  145     2.0    48.0     1.0
  146     8.0    56.0    27.0
  147    13.0    52.0    36.0
  148     6.0    68.0    30.0
  149    47.0    47.0    13.0
  150    49.0    58.0    10.0
  151    27.0    43.0     9.0
  152    37.0    31.0    14.0
  153    57.0    29.0    18.0
  154    63.0    23.0     2.0
  155    53.0    12.0     6.0
  156    32.0    12.0     7.0
  157    36.0    26.0    18.0
  158    21.0    24.0    28.0
  159    17.0    34.0     3.0
  160    12.0    24.0    13.0
  161    24.0    58.0    19.0
  162    27.0    69.0    10.0
  163    15.0    77.0     9.0
  164    62.0    77.0    20.0
  165    49.0    73.0    25.0
  166    67.0     5.0    25.0
  167    56.0    39.0    36.0
  168    37.0    47.0     6.0
  169    37.0    56.0     5.0
  170    57.0    68.0    15.0
  171    47.0    16.0    25.0
  172    44.0    17.0     9.0
  173    46.0    13.0     8.0
  174    49.0    11.0    18.0
  175    49.0    42.0    13.0
  176    53.0    43.0    14.0
  177    61.0    52.0     3.0
  178    57.0    48.0    23.0
  179    56.0    37.0     6.0
  180    55.0    54.0    26.0
  181    15.0    47.0    16.0
  182    14.0    37.0    11.0
  183    11.0    31.0     7.0
  184    16.0    22.0    41.0
  185     4.0    18.0    35.0
  186    28.0    18.0    26.0
  187    26.0    52.0     9.0
  188    26.0    35.0    15.0
  189    31.0    67.0     3.0
  190    15.0    19.0     1.0
  191    22.0    22.0     2.0
  192    18.0    24.0    22.0
  193    26.0    27.0    27.0
  194    25.0    24.0    20.0
  195    22.0    27.0    11.0
  196    25.0    21.0    12.0
  197    19.0    21.0    10.0
  198    20.0    26.0     9.0
  199    18.0    18.0    17.0
Node - number of items - h - w for each item
    0   0
    1   1   11    6
    2   1   15    2
    3   4    6    7   24    4   24    3   16    3
    4   1   29    3
    5   1    4   10
    6   1    4    7
    7   2    7    5   17    3
    8   2   17    3   11    3
    9   4    8    6    4    6   20    4   14    2
   10   1   22    3
   11   3    6    9   22    4   19    3
   12   4    5   14    6   10    8    7   10    4
   13   3    6   11    6    9    4    5
   14   2   13    4    9    3
   15   3   13    6   14    4   15    3
   16   3   32    4    9    4   23    2
   17   4   17    4   27    3   19    3   16    3
   18   3    7   10    7    6   17    3
   19   2   19    3   10    3
   20   2   11    7   14    6
   21   4    7   12   26    4   26    3   13    3
   22   3    8   12   15    7   26    2
   23   2    6   10   24    4
   24   3    7   10    6    7   25    2
   25   3   21    3   13    3   13    2
   26   2    6   11   26    4
   27   3    5    7    5    6   16    4
   28   1   20    3
   29   3    6   11   32    2   19    2
   30   3    7    7   20    4    9    4
   31   3   12    7   12    5    5    3
   32   2    6    6   15    2
   33   1    8    6
   34   1    7    8
   35   1   19    3
   36   3   30    3   16    3    5    2
   37   2    6    9   18    3
   38   3    7   12   29    4   26    4
   39   2    7    5    8    4
   40   2   14    4    9    2
   41   3    7    8   13    3   13    3
   42   1   17    2
   43   4    5    8    7    6    4    6   31    2
   44   1    7   12
   45   2    8   13   16    3
   46   1   10    5
   47   2    6   12   20    2
   48   4    4   11    8    7   31    3   21    3
   49   3    7    9    8    7    7    3
   50   3    6    9    4    9   13    3
   51   1   31    3
   52   4    7   12    7    9   12    6   15    4
   53   1   16    2
   54   3    4   13   26    4   21    3
   55   1   31    3
   56   4    7   14    6    9    5    7    6    3
   57   4   14    8    7    7   14    4   12    3
   58   4   25    4   10    4   24    3   21    3
   59   1   15    3
   60   3    7    7    6    7   21    4
   61   3   14    5   10    4   27    3
   62   4    7   10    7    7   13    5    6    5
   63   1    9    4
   64   2    5   12   16    3
   65   2   15    5    5    4
   66   2    5    6   26    4
   67   1   14    6
   68   2   12    6   16    2
   69   4    6   10    6    7    8    4    8    4
   70   2    4    5   21    2
   71   2   11    6   11    2
   72   1    6    5
   73   1    8    7
   74   4    7   11   16    4   25    3   21    3
   75   1    5   10
   76   4    7   12   11    7   11    6    4    5
   77   3    6   13    6   13   24    3
   78   4    5   12    5   11    4    5    9    4
   79   3    5   12   15    6   12    5
   80   4   15    6    5    5   22    4   27    3
   81   2    7   12    7    6
   82   4    5    7    5    6   30    4   18    4
   83   1    7    8
   84   1   13    3
   85   4    6   13   10    7    6    5   10    3
   86   4    6   10   11    7    8    7    6    3
   87   1    6   10
   88   3    8    8    7    4   21    3
   89   4    9    5    7    4    8    3   25    2
   90   3    5    4   26    2   25    2
   91   3    7    8    7    5   17    2
   92   4   12    8   11    5   10    4   15    2
   93   3    8   12    6    4   27    3
   94   4    7   13    9    4   17    3   14    2
   95   1    4    3
   96   2    7   14   12    7
   97   1    7    9
   98   4    6   13    6    9    5    7   21    2
   99   4    6   11    5    9    9    6   11    5
  100   2   15    7   12    3
  101   3   31    4   22    3   29    2
  102   2    8    7    6    3
  103   1   24    2
  104   3    6    9   13    6    7    4
  105   1   30    2
  106   2   15    6   10    4
  107   3   14    7    9    5   23    4
  108   4    4    8   22    4   19    4   15    4
  109   3    8   11   15    5    7    5
  110   2   18    2   16    2
  111   3   24    4    7    4   23    3
  112   2   10    7   23    3
  113   4    5   12    4   12    5    8   29    2
  114   2    4    8    4    4
  115   1   14    4
  116   4    7   11    8    5    7    4   15    3
  117   1   22    2
  118   1    9    4
  119   2   13    8    9    3
  120   4    5    6   11    5   18    4   21    3
  121   2    8   10    8    7
  122   1   13    8
  123   3    5    5   30    3   26    2
  124   2    4    6   27    3
  125   4    6   14   14    4   29    3   29    3
  126   1    6    7
  127   4    6   10    5    5   18    3   16    3
  128   3    6   12    8    7   29    3
  129   3    6    8   12    3    4    3
  130   4   16    5   15    4   22    3   14    3
  131   2   22    3   16    3
  132   3    6    9   12    6   14    5
  133   2   14    8    8    4
  134   1    4   10
  135   2   27    4   12    2
  136   1   28    2
  137   4    7    6    7    5   31    2   10    2
  138   4    4    8   12    4   24    3   31    2
  139   1    6    6
  140   1    7    9
  141   4    6   11    4    8   21    4   14    3
  142   4    5    9   14    4   28    3   19    3
  143   2   17    3   12    2
  144   4    8   14    5   11    6    9   13    2
  145   1    7    4
  146   2    7    7    8    4
  147   2   11    5   21    4
  148   2    9    5    8    5
  149   1   16    3
  150   4    5    8   14    7   12    5   13    3
  151   3    4    9    7    7   14    5
  152   2   22    3   28    2
  153   2   15    3   13    3
  154   4    8    6   10    5    6    3    5    3
  155   1    6   12
  156   4   11    8   10    6   13    5    7    3
  157   1    5    9
  158   1   12    3
  159   1   12    3
  160   1   25    3
  161   2    4    5   21    4
  162   4    6    7    8    4   17    3   29    2
  163   4    8   14    5    9   22    4   14    3
  164   3   28    4   14    3    7    3
  165   3    7   11   30    3   21    3
  166   3    7   11   13    7    9    4
  167   4    6   12    4   10   13    8   13    2
  168   1    5   11
  169   2    6    5   31    4
  170   3    7    9    6    7   22    2
  171   2    4   12   19    2
  172   3    8   14   10    8    8    3
  173   1    6    6
  174   2    6    4   18    3
  175   2   13    5   25    3
  176   4    7   13    4   13    5    5   29    3
  177   4    5   14    7   13    5   10    8    4
  178   3    8    4   24    2   19    2
  179   1   22    3
  180   1    7    9
  181   4    7   10   10    7   12    4   32    3
  182   4   15    4    6    4   31    3   18    3
  183   2    8    7   20    4
  184   3   15    4   29    3   18    3
  185   3    7   11    5   10   12    8
  186   3    7   12    6   11    8   10
  187   4    8   14    7    6   19    3   16    3
  188   3   11    6    8    5   23    3
  189   3    7    7   23    3    7    2
  190   3   16    5   24    4   24    3
  191   1    5    2
  192   4    5    8   12    4   26    3   17    3
  193   3    5    7   25    4   12    3
  194   2   11    6   12    2
  195   3    4    6   17    2   15    2
  196   1    6    9
  197   4    4   10   32    4   29    3   24    3
  198   4    5   13    5   10    5    5   28    2
  199   2    5    7   24    2
